p cnf 666
-18 -178
-19 -181
-20 -184
-21 -187
-22 -190
-23 -193
-24 -196
-25 -199
-26 -202
-27 -205
-28 -208
-29 -211
-30 -214
-31 -217
-32 -220
-33 -223
-34 -226
-35 -228
-36 -230
-37 -232
-38 -234
-39 -236
-40 -238
-41 -240
-42 -242
-43 -244
-44 -246
-45 -248
-46 -250
-47 -252
-48 -254
-49 -256
-50 -258
-51 -260
-52 261
-53 -31
-53 34
31 -34 53
-54 31
-54 -34
-31 34 54
-55 -53
-55 -54
53 54 55
-56 -1
-56 -2
1 2 56
-57 -3
-57 -4
3 4 57
-58 -5
-58 -6
5 6 58
-59 -7
-59 -8
7 8 59
-60 -9
-60 -10
9 10 60
-61 -11
-61 -12
11 12 61
-62 -13
-62 -14
13 14 62
-63 -15
-63 -16
15 16 63
-64 56
-64 57
-56 -57 64
-65 58
-65 59
-58 -59 65
-66 60
-66 61
-60 -61 66
-67 62
-67 63
-62 -63 67
-68 64
-68 65
-64 -65 68
-69 66
-69 67
-66 -67 69
-70 68
-70 69
-68 -69 70
-71 -17
-71 70
17 -70 71
-72 -35
-72 -36
35 36 72
-73 -37
-73 -38
37 38 73
-74 -39
-74 -40
39 40 74
-75 -41
-75 -42
41 42 75
-76 -43
-76 -44
43 44 76
-77 -45
-77 -46
45 46 77
-78 -47
-78 -48
47 48 78
-79 -49
-79 -50
49 50 79
-80 72
-80 73
-72 -73 80
-81 74
-81 75
-74 -75 81
-82 76
-82 77
-76 -77 82
-83 78
-83 79
-78 -79 83
-84 80
-84 81
-80 -81 84
-85 82
-85 83
-82 -83 85
-86 84
-86 85
-84 -85 86
-87 -51
-87 86
51 -86 87
-88 35
-88 -55
-35 55 88
-89 -35
-89 55
35 -55 89
-90 -88
-90 -89
88 89 90
-91 18
-91 36
-18 -36 91
-92 -18
-92 -36
18 36 92
-93 -91
-93 -92
91 92 93
-94 19
-94 37
-19 -37 94
-95 -19
-95 -37
19 37 95
-96 -94
-96 -95
94 95 96
-97 20
-97 38
-20 -38 97
-98 -20
-98 -38
20 38 98
-99 -97
-99 -98
97 98 99
-100 21
-100 39
-21 -39 100
-101 -21
-101 -39
21 39 101
-102 -100
-102 -101
100 101 102
-103 22
-103 40
-22 -40 103
-104 -22
-104 -40
22 40 104
-105 -103
-105 -104
103 104 105
-106 23
-106 41
-23 -41 106
-107 -23
-107 -41
23 41 107
-108 -106
-108 -107
106 107 108
-109 24
-109 42
-24 -42 109
-110 -24
-110 -42
24 42 110
-111 -109
-111 -110
109 110 111
-112 25
-112 43
-25 -43 112
-113 -25
-113 -43
25 43 113
-114 -112
-114 -113
112 113 114
-115 26
-115 44
-26 -44 115
-116 -26
-116 -44
26 44 116
-117 -115
-117 -116
115 116 117
-118 27
-118 45
-27 -45 118
-119 -27
-119 -45
27 45 119
-120 -118
-120 -119
118 119 120
-121 28
-121 46
-28 -46 121
-122 -28
-122 -46
28 46 122
-123 -121
-123 -122
121 122 123
-124 29
-124 47
-29 -47 124
-125 -29
-125 -47
29 47 125
-126 -124
-126 -125
124 125 126
-127 30
-127 48
-30 -48 127
-128 -30
-128 -48
30 48 128
-129 -127
-129 -128
127 128 129
-130 31
-130 49
-31 -49 130
-131 -31
-131 -49
31 49 131
-132 -130
-132 -131
130 131 132
-133 32
-133 50
-32 -50 133
-134 -32
-134 -50
32 50 134
-135 -133
-135 -134
133 134 135
-136 33
-136 51
-33 -51 136
-137 -33
-137 -51
33 51 137
-138 -136
-138 -137
136 137 138
-139 -90
-139 -93
90 93 139
-140 -96
-140 -99
96 99 140
-141 -102
-141 -105
102 105 141
-142 -108
-142 -111
108 111 142
-143 -114
-143 -117
114 117 143
-144 -120
-144 -123
120 123 144
-145 -126
-145 -129
126 129 145
-146 -132
-146 -135
132 135 146
-147 139
-147 140
-139 -140 147
-148 141
-148 142
-141 -142 148
-149 143
-149 144
-143 -144 149
-150 145
-150 146
-145 -146 150
-151 147
-151 148
-147 -148 151
-152 149
-152 150
-149 -150 152
-153 151
-153 152
-151 -152 153
-154 -138
-154 153
138 -153 154
-155 -87
-155 154
87 -154 155
-156 52
-156 155
-52 -155 156
-157 71
-157 156
-71 -156 157
-158 -18
-158 55
18 -55 158
-159 -19
-159 -20
19 20 159
-160 -21
-160 -22
21 22 160
-161 -23
-161 -24
23 24 161
-162 -25
-162 -26
25 26 162
-163 -27
-163 -28
27 28 163
-164 -29
-164 -30
29 30 164
-165 -31
-165 -32
31 32 165
-166 158
-166 159
-158 -159 166
-167 160
-167 161
-160 -161 167
-168 162
-168 163
-162 -163 168
-169 164
-169 165
-164 -165 169
-170 166
-170 167
-166 -167 170
-171 168
-171 169
-168 -169 171
-172 170
-172 171
-170 -171 172
-173 -33
-173 172
33 -172 173
-174 -87
-174 173
87 -173 174
-175 71
-175 -155
-71 155 175
-176 1
-176 -71
-1 71 176
-177 -55
-177 71
55 -71 177
-178 -176
-178 -177
176 177 178
-179 2
-179 -71
-2 71 179
-180 18
-180 71
-18 -71 180
-181 -179
-181 -180
179 180 181
-182 3
-182 -71
-3 71 182
-183 19
-183 71
-19 -71 183
-184 -182
-184 -183
182 183 184
-185 4
-185 -71
-4 71 185
-186 20
-186 71
-20 -71 186
-187 -185
-187 -186
185 186 187
-188 5
-188 -71
-5 71 188
-189 21
-189 71
-21 -71 189
-190 -188
-190 -189
188 189 190
-191 6
-191 -71
-6 71 191
-192 22
-192 71
-22 -71 192
-193 -191
-193 -192
191 192 193
-194 7
-194 -71
-7 71 194
-195 23
-195 71
-23 -71 195
-196 -194
-196 -195
194 195 196
-197 8
-197 -71
-8 71 197
-198 24
-198 71
-24 -71 198
-199 -197
-199 -198
197 198 199
-200 9
-200 -71
-9 71 200
-201 25
-201 71
-25 -71 201
-202 -200
-202 -201
200 201 202
-203 10
-203 -71
-10 71 203
-204 26
-204 71
-26 -71 204
-205 -203
-205 -204
203 204 205
-206 11
-206 -71
-11 71 206
-207 27
-207 71
-27 -71 207
-208 -206
-208 -207
206 207 208
-209 12
-209 -71
-12 71 209
-210 28
-210 71
-28 -71 210
-211 -209
-211 -210
209 210 211
-212 13
-212 -71
-13 71 212
-213 29
-213 71
-29 -71 213
-214 -212
-214 -213
212 213 214
-215 14
-215 -71
-14 71 215
-216 30
-216 71
-30 -71 216
-217 -215
-217 -216
215 216 217
-218 15
-218 -71
-15 71 218
-219 31
-219 71
-31 -71 219
-220 -218
-220 -219
218 219 220
-221 16
-221 -71
-16 71 221
-222 32
-222 71
-32 -71 222
-223 -221
-223 -222
221 222 223
-224 17
-224 -71
-17 71 224
-225 33
-225 71
-33 -71 225
-226 -224
-226 -225
224 225 226
-227 35
-227 71
-35 -71 227
-228 -176
-228 -227
176 227 228
-229 36
-229 71
-36 -71 229
-230 -179
-230 -229
179 229 230
-231 37
-231 71
-37 -71 231
-232 -182
-232 -231
182 231 232
-233 38
-233 71
-38 -71 233
-234 -185
-234 -233
185 233 234
-235 39
-235 71
-39 -71 235
-236 -188
-236 -235
188 235 236
-237 40
-237 71
-40 -71 237
-238 -191
-238 -237
191 237 238
-239 41
-239 71
-41 -71 239
-240 -194
-240 -239
194 239 240
-241 42
-241 71
-42 -71 241
-242 -197
-242 -241
197 241 242
-243 43
-243 71
-43 -71 243
-244 -200
-244 -243
200 243 244
-245 44
-245 71
-44 -71 245
-246 -203
-246 -245
203 245 246
-247 45
-247 71
-45 -71 247
-248 -206
-248 -247
206 247 248
-249 46
-249 71
-46 -71 249
-250 -209
-250 -249
209 249 250
-251 47
-251 71
-47 -71 251
-252 -212
-252 -251
212 251 252
-253 48
-253 71
-48 -71 253
-254 -215
-254 -253
215 253 254
-255 49
-255 71
-49 -71 255
-256 -218
-256 -255
218 255 256
-257 50
-257 71
-50 -71 257
-258 -221
-258 -257
221 257 258
-259 51
-259 71
-51 -71 259
-260 -224
-260 -259
224 259 260
-261 -52
-261 175
52 -175 261
-262 -157
-262 -174
157 174 262
-262
